<?xml version = "1.0" encoding="UTF-8" standalone="yes"?>
<CPLEXSolution version="1.2">
 <header
   problemName="mknap1_cut_n1"
   objectiveValue="9297.7124668435026"
   solutionTypeValue="1"
   solutionTypeString="basic"
   solutionStatusValue="1"
   solutionStatusString="optimal"
   solutionMethodString="primal"
   primalFeasible="1"
   dualFeasible="1"
   simplexIterations="0"
   writeLevel="1"/>
 <quality
   epRHS="9.9999999999999995e-07"
   epOpt="9.9999999999999995e-07"
   maxPrimalInfeas="0"
   maxDualInfeas="0"
   maxPrimalResidual="3.5291214395272164e-14"
   maxDualResidual="3.2684965844964609e-13"
   maxX="1"
   maxPi="11.385145888594163"
   maxSlack="58.453580901856782"
   maxRedCost="1510.0668435013265"
   kappa="82764.294508265128"/>
 <linearConstraints>
  <constraint name="c0" index="0" status="BS" slack="58.453580901856782" dual="-0"/>
  <constraint name="c1" index="1" status="LL" slack="0" dual="11.385145888594163"/>
  <constraint name="c2" index="2" status="LL" slack="0" dual="5.8040318302387286"/>
  <constraint name="c3" index="3" status="BS" slack="25.578249336870044" dual="-0"/>
  <constraint name="c4" index="4" status="BS" slack="33.236074270557026" dual="-0"/>
  <constraint name="c5" index="5" status="BS" slack="32.230769230769226" dual="-0"/>
  <constraint name="c6" index="6" status="BS" slack="33.705570291777207" dual="-0"/>
  <constraint name="c7" index="7" status="BS" slack="10.16445623342176" dual="-0"/>
  <constraint name="c8" index="8" status="BS" slack="25.082228116710894" dual="-0"/>
  <constraint name="c9" index="9" status="LL" slack="0" dual="0.3716180371352783"/>
  <constraint name="cut_1" index="10" status="BS" slack="0.54641909814321821" dual="-0"/>
 </linearConstraints>
 <variables>
  <variable name="x0" index="0" status="BS" value="0.77453580901856767" reducedCost="0"/>
  <variable name="x1" index="1" status="UL" value="1" reducedCost="208.18923076923079"/>
  <variable name="x2" index="2" status="BS" value="0.43687002652519902" reducedCost="0"/>
  <variable name="x3" index="3" status="BS" value="0.86684350132625987" reducedCost="0"/>
  <variable name="x4" index="4" status="LL" value="0" reducedCost="-29.616127320954909"/>
  <variable name="x5" index="5" status="UL" value="1" reducedCost="92.29458885941645"/>
  <variable name="x6" index="6" status="LL" value="0" reducedCost="-505.02758620689644"/>
  <variable name="x7" index="7" status="UL" value="1" reducedCost="1510.0668435013265"/>
  <variable name="x8" index="8" status="LL" value="0" reducedCost="-781.98732095490709"/>
  <variable name="x9" index="9" status="LL" value="0" reducedCost="-216.63511936339521"/>
  <variable name="s0" index="10" status="LL" value="0" reducedCost="0"/>
  <variable name="s1" index="11" status="LL" value="0" reducedCost="-11.385145888594163"/>
  <variable name="s2" index="12" status="LL" value="0" reducedCost="-5.8040318302387286"/>
  <variable name="s3" index="13" status="LL" value="0" reducedCost="0"/>
  <variable name="s4" index="14" status="LL" value="0" reducedCost="0"/>
  <variable name="s5" index="15" status="LL" value="0" reducedCost="0"/>
  <variable name="s6" index="16" status="LL" value="0" reducedCost="0"/>
  <variable name="s7" index="17" status="LL" value="0" reducedCost="0"/>
  <variable name="s8" index="18" status="LL" value="0" reducedCost="0"/>
  <variable name="s9" index="19" status="LL" value="0" reducedCost="-0.3716180371352783"/>
 </variables>
 <objectiveValues>
  <objective index="0" name="" value="9297.7124668435026"/>
 </objectiveValues>
</CPLEXSolution>
